
include ${pot}.lmp
include kalj.lmp
units lj
atom_style atomic

variable dimensions equal 3
variable density equal 1.2
variable fraca equal 0.8

dimension ${dimensions}
dimension 3
read_restart ${prevbasename}.final.lmprestart.${steps}
read_restart equil/kalj_T0.8_n360_v300_150000_1.final.lmprestart.${steps}
read_restart equil/kalj_T0.8_n360_v300_150000_1.final.lmprestart.150000
Reading restart file ...
  restart file = 15 Sep 2022, LAMMPS = 15 Sep 2022
WARNING: Restart file used different # of processors: 16 vs. 32 (src/read_restart.cpp:659)
  restoring atom style atomic from restart
  orthogonal box = (0 0 0) to (6.6943295 6.6943295 6.6943295)
  2 by 4 by 4 MPI processor grid
  restoring pair style lj/cut from restart
  360 atoms
  read_restart CPU = 0.040 seconds
include ${pot}_particles.lmp
include kalj_particles.lmp
mass * 1.0 #  set mass 1.0 for all types

pair_style lj/cut 2.5
#pair coeffs type1 type2 eps sigma
pair_coeff 1 1 1.0 1.00 2.5
pair_coeff 1 2 1.5 0.80 2.0
pair_coeff 2 2 0.5 0.88 2.2
pair_modify shift yes
reset_timestep 0

print "Setting up equilibration run"
Setting up equilibration run
variable dumptime2 equal ${steps}/2000
variable dumptime2 equal 150000/2000
dump 1 all dcd ${dumptime2} ${basename}.unwrap.dcd
dump 1 all dcd 75 ${basename}.unwrap.dcd
dump 1 all dcd 75 prod/kalj_T0.8_n360_v300_prod_150000_1.unwrap.dcd
#dump 2 all dcd ${dumptime2} ${basename}.dcd
dump_modify 1 unwrap yes
#dump_modify 2 unwrap no

restart ${restarttime} ${basename}.restart
restart 150000 ${basename}.restart
restart 150000 prod/kalj_T0.8_n360_v300_prod_150000_1.restart
restart ${steps} ${basename}.final.lmprestart
restart 150000 ${basename}.final.lmprestart
restart 150000 prod/kalj_T0.8_n360_v300_prod_150000_1.final.lmprestart

thermo ${thermotime}
thermo 5000
timestep ${timestep}
timestep 0.002

neighbor 0.5 bin
neigh_modify every 1 delay ${neighborstep} check yes
neigh_modify every 1 delay 25 check yes

#velocity all create ${temp} ${id} dist gaussian
fix 1 all nvt temp ${temp} ${temp} ${taut}
fix 1 all nvt temp 0.8 ${temp} ${taut}
fix 1 all nvt temp 0.8 0.8 ${taut}
fix 1 all nvt temp 0.8 0.8 0.2
Resetting global fix info from restart file:
  fix style: nvt, fix ID: 1

variable steps4 equal ${steps}/4
variable steps4 equal 150000/4
run ${steps4}
run 37500
Generated 0 of 1 mixed pair_coeff terms from geometric mixing rule
All restart file global fix info was re-assigned
Neighbor list info ...
  update: every = 1 steps, delay = 25 steps, check = yes
  max neighbors/atom: 2000, page size: 100000
  master list distance cutoff = 3
  ghost atom cutoff = 3
  binsize = 1.5, bins = 5 5 5
  1 neighbor lists, perpetual/occasional/extra = 1 0 0
  (1) pair lj/cut, perpetual
      attributes: half, newton on
      pair build: half/bin/atomonly/newton
      stencil: half/bin/3d
      bin: standard
Per MPI rank memory allocation (min/avg/max) = 3.099 | 3.099 | 3.099 Mbytes
   Step          Temp          E_pair         E_mol          TotEng         Press     
         0   0.82689726    -6.3172347      0             -5.0803343      7.7562458    
      5000   0.78295597    -6.3555541      0             -5.1843825      7.4931778    
     10000   0.76551967    -6.3189047      0             -5.1738149      7.7437442    
     15000   0.81288294    -6.3593361      0             -5.1433986      7.4082169    
     20000   0.80709585    -6.3641198      0             -5.1568389      7.4578787    
     25000   0.82194051    -6.3263443      0             -5.0968583      7.5562061    
     30000   0.77661923    -6.4111041      0             -5.2494112      7.1054276    
     35000   0.84110332    -6.3645946      0             -5.1064442      7.6170225    
     37500   0.78347092    -6.290587       0             -5.1186451      7.7423022    
Loop time of 2.12593 on 32 procs for 37500 steps with 360 atoms

Performance: 3048074.358 tau/day, 17639.319 timesteps/s, 6.350 Matom-step/s
99.4% CPU use with 32 MPI tasks x 1 OpenMP threads

MPI task timing breakdown:
Section |  min time  |  avg time  |  max time  |%varavg| %total
---------------------------------------------------------------
Pair    | 0.16817    | 0.18845    | 0.20815    |   2.5 |  8.86
Neigh   | 0.022097   | 0.024313   | 0.027343   |   0.9 |  1.14
Comm    | 1.3713     | 1.5205     | 1.6743     |   7.0 | 71.52
Output  | 0.028599   | 0.048949   | 0.0736     |   5.6 |  2.30
Modify  | 0.11167    | 0.26974    | 0.39312    |  15.2 | 12.69
Other   |            | 0.07401    |            |       |  3.48

Nlocal:          11.25 ave          15 max           8 min
Histogram: 1 4 6 0 6 9 0 3 2 1
Nghost:        649.781 ave         661 max         633 min
Histogram: 1 2 1 2 3 5 4 7 4 3
Neighs:        648.406 ave         884 max         500 min
Histogram: 4 4 2 7 6 5 2 1 0 1

Total # of neighbors = 20749
Ave neighs/atom = 57.636111
Neighbor list builds = 897
Dangerous builds = 0
Total wall time: 0:00:02
