
include ${pot}.lmp
include kalj.lmp
units lj
atom_style atomic

variable dimensions equal 3
variable density equal 1.2
variable fraca equal 0.8

dimension ${dimensions}
dimension 3
read_restart ${prevbasename}.final.lmprestart.${steps}
read_restart equil/kalj_T0.7_n360_v300_180000_1.final.lmprestart.${steps}
read_restart equil/kalj_T0.7_n360_v300_180000_1.final.lmprestart.180000
Reading restart file ...
  restart file = 15 Sep 2022, LAMMPS = 15 Sep 2022
WARNING: Restart file used different # of processors: 16 vs. 32 (src/read_restart.cpp:659)
  restoring atom style atomic from restart
  orthogonal box = (0 0 0) to (6.6943295 6.6943295 6.6943295)
  2 by 4 by 4 MPI processor grid
  restoring pair style lj/cut from restart
  360 atoms
  read_restart CPU = 0.040 seconds
include ${pot}_particles.lmp
include kalj_particles.lmp
mass * 1.0 #  set mass 1.0 for all types

pair_style lj/cut 2.5
#pair coeffs type1 type2 eps sigma
pair_coeff 1 1 1.0 1.00 2.5
pair_coeff 1 2 1.5 0.80 2.0
pair_coeff 2 2 0.5 0.88 2.2
pair_modify shift yes
reset_timestep 0

print "Setting up equilibration run"
Setting up equilibration run
variable dumptime2 equal ${steps}/2000
variable dumptime2 equal 180000/2000
dump 1 all dcd ${dumptime2} ${basename}.unwrap.dcd
dump 1 all dcd 90 ${basename}.unwrap.dcd
dump 1 all dcd 90 prod/kalj_T0.7_n360_v300_prod_180000_1.unwrap.dcd
#dump 2 all dcd ${dumptime2} ${basename}.dcd
dump_modify 1 unwrap yes
#dump_modify 2 unwrap no

restart ${restarttime} ${basename}.restart
restart 180000 ${basename}.restart
restart 180000 prod/kalj_T0.7_n360_v300_prod_180000_1.restart
restart ${steps} ${basename}.final.lmprestart
restart 180000 ${basename}.final.lmprestart
restart 180000 prod/kalj_T0.7_n360_v300_prod_180000_1.final.lmprestart

thermo ${thermotime}
thermo 6000
timestep ${timestep}
timestep 0.003

neighbor 0.5 bin
neigh_modify every 1 delay ${neighborstep} check yes
neigh_modify every 1 delay 25 check yes

#velocity all create ${temp} ${id} dist gaussian
fix 1 all nvt temp ${temp} ${temp} ${taut}
fix 1 all nvt temp 0.7 ${temp} ${taut}
fix 1 all nvt temp 0.7 0.7 ${taut}
fix 1 all nvt temp 0.7 0.7 0.3
Resetting global fix info from restart file:
  fix style: nvt, fix ID: 1

variable steps4 equal ${steps}/4
variable steps4 equal 180000/4
run ${steps4}
run 45000
Generated 0 of 1 mixed pair_coeff terms from geometric mixing rule
All restart file global fix info was re-assigned
Neighbor list info ...
  update: every = 1 steps, delay = 25 steps, check = yes
  max neighbors/atom: 2000, page size: 100000
  master list distance cutoff = 3
  ghost atom cutoff = 3
  binsize = 1.5, bins = 5 5 5
  1 neighbor lists, perpetual/occasional/extra = 1 0 0
  (1) pair lj/cut, perpetual
      attributes: half, newton on
      pair build: half/bin/atomonly/newton
      stencil: half/bin/3d
      bin: standard
Per MPI rank memory allocation (min/avg/max) = 3.099 | 3.099 | 3.099 Mbytes
   Step          Temp          E_pair         E_mol          TotEng         Press     
         0   0.67916128    -6.5500442      0             -5.5341321      6.1807638    
      6000   0.72943161    -6.5076174      0             -5.4165093      6.6416563    
     12000   0.71040704    -6.4857814      0             -5.4231308      6.6566636    
     18000   0.70514638    -6.5529514      0             -5.4981699      6.4037533    
     24000   0.68670877    -6.5379525      0             -5.5107506      6.455771     
     30000   0.70562348    -6.431576       0             -5.3760809      7.0008518    
     36000   0.70554317    -6.4204112      0             -5.3650362      7.1348221    
     42000   0.72996321    -6.5202837      0             -5.4283804      6.386244     
     45000   0.6818265     -6.5332731      0             -5.5133743      6.1936887    
Loop time of 2.5075 on 32 procs for 45000 steps with 360 atoms

Performance: 4651645.830 tau/day, 17946.164 timesteps/s, 6.461 Matom-step/s
99.4% CPU use with 32 MPI tasks x 1 OpenMP threads

MPI task timing breakdown:
Section |  min time  |  avg time  |  max time  |%varavg| %total
---------------------------------------------------------------
Pair    | 0.20533    | 0.22916    | 0.26231    |   2.8 |  9.14
Neigh   | 0.03583    | 0.039721   | 0.045349   |   1.1 |  1.58
Comm    | 1.6326     | 1.8121     | 2.0027     |   7.7 | 72.27
Output  | 0.029033   | 0.049465   | 0.074357   |   5.5 |  1.97
Modify  | 0.12807    | 0.32533    | 0.46895    |  16.7 | 12.97
Other   |            | 0.05177    |            |       |  2.06

Nlocal:          11.25 ave          14 max           8 min
Histogram: 2 2 0 5 0 10 6 0 4 3
Nghost:        644.031 ave         653 max         638 min
Histogram: 2 3 9 4 5 0 4 1 3 1
Neighs:        648.188 ave         815 max         426 min
Histogram: 2 0 2 1 9 7 1 3 4 3

Total # of neighbors = 20742
Ave neighs/atom = 57.616667
Neighbor list builds = 1482
Dangerous builds = 110
Total wall time: 0:00:02
