
include ${pot}.lmp
include kalj.lmp
units lj
atom_style atomic

variable dimensions equal 3
variable density equal 1.2
variable fraca equal 0.8

dimension ${dimensions}
dimension 3
read_restart ${prevbasename}.final.lmprestart.${steps}
read_restart equil/kalj_T0.9_n360_v300_150000_1.final.lmprestart.${steps}
read_restart equil/kalj_T0.9_n360_v300_150000_1.final.lmprestart.150000
Reading restart file ...
  restart file = 15 Sep 2022, LAMMPS = 15 Sep 2022
WARNING: Restart file used different # of processors: 16 vs. 32 (src/read_restart.cpp:659)
  restoring atom style atomic from restart
  orthogonal box = (0 0 0) to (6.6943295 6.6943295 6.6943295)
  2 by 4 by 4 MPI processor grid
  restoring pair style lj/cut from restart
  360 atoms
  read_restart CPU = 0.027 seconds
include ${pot}_particles.lmp
include kalj_particles.lmp
mass * 1.0 #  set mass 1.0 for all types

pair_style lj/cut 2.5
#pair coeffs type1 type2 eps sigma
pair_coeff 1 1 1.0 1.00 2.5
pair_coeff 1 2 1.5 0.80 2.0
pair_coeff 2 2 0.5 0.88 2.2
pair_modify shift yes
reset_timestep 0

print "Setting up equilibration run"
Setting up equilibration run
variable dumptime2 equal ${steps}/2000
variable dumptime2 equal 150000/2000
dump 1 all dcd ${dumptime2} ${basename}.unwrap.dcd
dump 1 all dcd 75 ${basename}.unwrap.dcd
dump 1 all dcd 75 prod/kalj_T0.9_n360_v300_prod_150000_1.unwrap.dcd
#dump 2 all dcd ${dumptime2} ${basename}.dcd
dump_modify 1 unwrap yes
#dump_modify 2 unwrap no

restart ${restarttime} ${basename}.restart
restart 150000 ${basename}.restart
restart 150000 prod/kalj_T0.9_n360_v300_prod_150000_1.restart
restart ${steps} ${basename}.final.lmprestart
restart 150000 ${basename}.final.lmprestart
restart 150000 prod/kalj_T0.9_n360_v300_prod_150000_1.final.lmprestart

thermo ${thermotime}
thermo 5000
timestep ${timestep}
timestep 0.002

neighbor 0.5 bin
neigh_modify every 1 delay ${neighborstep} check yes
neigh_modify every 1 delay 25 check yes

#velocity all create ${temp} ${id} dist gaussian
fix 1 all nvt temp ${temp} ${temp} ${taut}
fix 1 all nvt temp 0.9 ${temp} ${taut}
fix 1 all nvt temp 0.9 0.9 ${taut}
fix 1 all nvt temp 0.9 0.9 0.2
Resetting global fix info from restart file:
  fix style: nvt, fix ID: 1

variable steps4 equal ${steps}/4
variable steps4 equal 150000/4
run ${steps4}
run 37500
Generated 0 of 1 mixed pair_coeff terms from geometric mixing rule
All restart file global fix info was re-assigned
Neighbor list info ...
  update: every = 1 steps, delay = 25 steps, check = yes
  max neighbors/atom: 2000, page size: 100000
  master list distance cutoff = 3
  ghost atom cutoff = 3
  binsize = 1.5, bins = 5 5 5
  1 neighbor lists, perpetual/occasional/extra = 1 0 0
  (1) pair lj/cut, perpetual
      attributes: half, newton on
      pair build: half/bin/atomonly/newton
      stencil: half/bin/3d
      bin: standard
Per MPI rank memory allocation (min/avg/max) = 3.099 | 3.099 | 3.099 Mbytes
   Step          Temp          E_pair         E_mol          TotEng         Press     
         0   0.90307536    -6.0925546      0             -4.7417044      9.2318292    
      5000   0.89532946    -6.2371479      0             -4.8978842      8.3915474    
     10000   0.91970192    -6.1523696      0             -4.7766488      9.0585837    
     15000   0.85882476    -6.1886634      0             -4.9040047      8.9612472    
     20000   0.86657902    -6.237296       0             -4.9410382      8.2835988    
     25000   0.97073644    -6.0345612      0             -4.5825013      9.5759439    
     30000   0.91494581    -6.2303135      0             -4.8617071      8.5165638    
     35000   0.87339461    -6.3251603      0             -5.0187075      7.6599055    
     37500   0.91444877    -6.2309053      0             -4.8630424      8.5228563    
Loop time of 2.13125 on 32 procs for 37500 steps with 360 atoms

Performance: 3040474.116 tau/day, 17595.336 timesteps/s, 6.334 Matom-step/s
99.4% CPU use with 32 MPI tasks x 1 OpenMP threads

MPI task timing breakdown:
Section |  min time  |  avg time  |  max time  |%varavg| %total
---------------------------------------------------------------
Pair    | 0.1716     | 0.19015    | 0.21381    |   2.6 |  8.92
Neigh   | 0.023874   | 0.026103   | 0.029614   |   0.9 |  1.22
Comm    | 1.3823     | 1.5287     | 1.6885     |   6.9 | 71.73
Output  | 0.028578   | 0.048972   | 0.073676   |   5.6 |  2.30
Modify  | 0.10807    | 0.26851    | 0.39267    |  15.5 | 12.60
Other   |            | 0.06883    |            |       |  3.23

Nlocal:          11.25 ave          15 max           7 min
Histogram: 1 1 1 6 0 10 7 3 2 1
Nghost:        648.656 ave         663 max         637 min
Histogram: 2 2 3 6 6 6 4 0 2 1
Neighs:        649.094 ave         888 max         436 min
Histogram: 1 2 1 7 7 8 4 0 0 2

Total # of neighbors = 20771
Ave neighs/atom = 57.697222
Neighbor list builds = 959
Dangerous builds = 0
Total wall time: 0:00:02
