
include ${pot}.lmp
include kalj.lmp
units lj
atom_style atomic

variable dimensions equal 3
variable density equal 1.2
variable fraca equal 0.8

dimension ${dimensions}
dimension 3
read_restart ${prevbasename}.final.lmprestart.${steps}
read_restart equil/kalj_T0.55_n360_v300_3000000_1.final.lmprestart.${steps}
read_restart equil/kalj_T0.55_n360_v300_3000000_1.final.lmprestart.3000000
Reading restart file ...
  restart file = 15 Sep 2022, LAMMPS = 15 Sep 2022
WARNING: Restart file used different # of processors: 16 vs. 32 (src/read_restart.cpp:659)
  restoring atom style atomic from restart
  orthogonal box = (0 0 0) to (6.6943295 6.6943295 6.6943295)
  2 by 4 by 4 MPI processor grid
  restoring pair style lj/cut from restart
  360 atoms
  read_restart CPU = 0.040 seconds
include ${pot}_particles.lmp
include kalj_particles.lmp
mass * 1.0 #  set mass 1.0 for all types

pair_style lj/cut 2.5
#pair coeffs type1 type2 eps sigma
pair_coeff 1 1 1.0 1.00 2.5
pair_coeff 1 2 1.5 0.80 2.0
pair_coeff 2 2 0.5 0.88 2.2
pair_modify shift yes
reset_timestep 0

print "Setting up equilibration run"
Setting up equilibration run
variable dumptime2 equal ${steps}/2000
variable dumptime2 equal 3000000/2000
dump 1 all dcd ${dumptime2} ${basename}.unwrap.dcd
dump 1 all dcd 1500 ${basename}.unwrap.dcd
dump 1 all dcd 1500 prod/kalj_T0.55_n360_v300_prod_3000000_1.unwrap.dcd
#dump 2 all dcd ${dumptime2} ${basename}.dcd
dump_modify 1 unwrap yes
#dump_modify 2 unwrap no

restart ${restarttime} ${basename}.restart
restart 3000000 ${basename}.restart
restart 3000000 prod/kalj_T0.55_n360_v300_prod_3000000_1.restart
restart ${steps} ${basename}.final.lmprestart
restart 3000000 ${basename}.final.lmprestart
restart 3000000 prod/kalj_T0.55_n360_v300_prod_3000000_1.final.lmprestart

thermo ${thermotime}
thermo 30000
timestep ${timestep}
timestep 0.003

neighbor 0.5 bin
neigh_modify every 1 delay ${neighborstep} check yes
neigh_modify every 1 delay 25 check yes

#velocity all create ${temp} ${id} dist gaussian
fix 1 all nvt temp ${temp} ${temp} ${taut}
fix 1 all nvt temp 0.55 ${temp} ${taut}
fix 1 all nvt temp 0.55 0.55 ${taut}
fix 1 all nvt temp 0.55 0.55 0.3
Resetting global fix info from restart file:
  fix style: nvt, fix ID: 1

variable steps4 equal ${steps}/4
variable steps4 equal 3000000/4
run ${steps4}
run 750000
Generated 0 of 1 mixed pair_coeff terms from geometric mixing rule
All restart file global fix info was re-assigned
Neighbor list info ...
  update: every = 1 steps, delay = 25 steps, check = yes
  max neighbors/atom: 2000, page size: 100000
  master list distance cutoff = 3
  ghost atom cutoff = 3
  binsize = 1.5, bins = 5 5 5
  1 neighbor lists, perpetual/occasional/extra = 1 0 0
  (1) pair lj/cut, perpetual
      attributes: half, newton on
      pair build: half/bin/atomonly/newton
      stencil: half/bin/3d
      bin: standard
Per MPI rank memory allocation (min/avg/max) = 3.099 | 3.099 | 3.1 Mbytes
   Step          Temp          E_pair         E_mol          TotEng         Press     
         0   0.54668618    -6.8346607      0             -6.0169093      4.1572284    
     30000   0.55140791    -6.7936423      0             -5.968828       4.4419114    
     60000   0.52380748    -6.7950775      0             -6.0115488      4.5324971    
     90000   0.56977389    -6.7810589      0             -5.9287721      4.5702255    
    120000   0.56700406    -6.7592526      0             -5.911109       4.6301041    
    150000   0.53817122    -6.7838871      0             -5.9788726      4.5264275    
    180000   0.5642681     -6.7660631      0             -5.922012       4.5945996    
    210000   0.50445635    -6.7991046      0             -6.044522       4.384393     
    240000   0.56670339    -6.7864326      0             -5.9387388      4.5478331    
    270000   0.53359424    -6.7764819      0             -5.9783138      4.5254451    
    300000   0.54934991    -6.8169891      0             -5.9952532      4.4614313    
    330000   0.5541461     -6.8058786      0             -5.9769683      4.4729888    
    360000   0.54592029    -6.8356677      0             -6.0190619      4.2166357    
    390000   0.53779798    -6.7854391      0             -5.980983       4.6121131    
    420000   0.52893721    -6.8461602      0             -6.0549583      4.1554123    
    450000   0.59351996    -6.8145912      0             -5.9267842      4.4184515    
    480000   0.50065898    -6.8068755      0             -6.0579731      4.3643101    
    510000   0.56207449    -6.743262       0             -5.9024922      4.8285562    
    540000   0.55149136    -6.8256293      0             -6.0006901      4.3470311    
    570000   0.51683688    -6.7950602      0             -6.0219584      4.6434403    
    600000   0.59590564    -6.762772       0             -5.8713965      4.7804621    
    630000   0.55404121    -6.8373419      0             -6.0085886      4.0705246    
    660000   0.53075289    -6.8196251      0             -6.0257073      4.2092114    
    690000   0.51869535    -6.7582141      0             -5.9823324      4.6202257    
    720000   0.53386036    -6.760216       0             -5.9616499      4.8735451    
    750000   0.54063076    -6.7884484      0             -5.9797549      4.6375395    
Loop time of 41.185 on 32 procs for 750000 steps with 360 atoms

Performance: 4720163.299 tau/day, 18210.507 timesteps/s, 6.556 Matom-step/s
99.6% CPU use with 32 MPI tasks x 1 OpenMP threads

MPI task timing breakdown:
Section |  min time  |  avg time  |  max time  |%varavg| %total
---------------------------------------------------------------
Pair    | 3.4237     | 3.8402     | 4.2629     |  11.0 |  9.32
Neigh   | 0.52383    | 0.57509    | 0.63917    |   4.0 |  1.40
Comm    | 27.39      | 30.149     | 33.37      |  31.7 | 73.20
Output  | 0.12041    | 0.14346    | 0.17087    |   3.7 |  0.35
Modify  | 2.149      | 5.4297     | 7.9015     |  69.0 | 13.18
Other   |            | 1.048      |            |       |  2.54

Nlocal:          11.25 ave          15 max           8 min
Histogram: 1 3 7 0 8 7 0 2 3 1
Nghost:            646 ave         665 max         620 min
Histogram: 1 2 1 2 7 4 5 2 1 7
Neighs:        650.938 ave         852 max         519 min
Histogram: 5 4 4 6 3 3 1 3 0 3

Total # of neighbors = 20830
Ave neighs/atom = 57.861111
Neighbor list builds = 21205
Dangerous builds = 152
Total wall time: 0:00:41
