
include ${pot}.lmp
include kalj.lmp
units lj
atom_style atomic

variable dimensions equal 3
variable density equal 1.2
variable fraca equal 0.8

dimension ${dimensions}
dimension 3
read_restart ${prevbasename}.final.lmprestart.${prevsteps}
read_restart equil/kalj_T0.6_n360_v300_1000000_1.final.lmprestart.${prevsteps}
read_restart equil/kalj_T0.6_n360_v300_1000000_1.final.lmprestart.1000000
Reading restart file ...
  restart file = 15 Sep 2022, LAMMPS = 15 Sep 2022
  restoring atom style atomic from restart
  orthogonal box = (0 0 0) to (6.6943295 6.6943295 6.6943295)
  2 by 2 by 4 MPI processor grid
  restoring pair style lj/cut from restart
  360 atoms
  read_restart CPU = 0.005 seconds
include ${pot}_particles.lmp
include kalj_particles.lmp
mass * 1.0 #  set mass 1.0 for all types

pair_style lj/cut 2.5
#pair coeffs type1 type2 eps sigma
pair_coeff 1 1 1.0 1.00 2.5
pair_coeff 1 2 1.5 0.80 2.0
pair_coeff 2 2 0.5 0.88 2.2
pair_modify shift yes
reset_timestep 0

print "Setting up annealing run"
Setting up annealing run
dump 1 all atom ${dumptime} ${basename}.lammpstrj
dump 1 all atom 300000 ${basename}.lammpstrj
dump 1 all atom 300000 equil/kalj_T0.55_n360_v300_3000000_1.lammpstrj
#dump_modify 1 sort id scale no

restart ${restarttime} ${basename}.restart
restart 3000000 ${basename}.restart
restart 3000000 equil/kalj_T0.55_n360_v300_3000000_1.restart
restart ${steps} ${basename}.final.lmprestart
restart 3000000 ${basename}.final.lmprestart
restart 3000000 equil/kalj_T0.55_n360_v300_3000000_1.final.lmprestart

thermo ${thermotime}
thermo 30000
timestep ${timestep}
timestep 0.003

neighbor 0.5 bin
neigh_modify every 1 delay ${neighborstep} check yes
neigh_modify every 1 delay 25 check yes

velocity all create ${temp} ${id} dist gaussian
velocity all create 0.55 ${id} dist gaussian
velocity all create 0.55 1 dist gaussian
fix 1 all nvt temp ${temp} ${temp} ${taut}
fix 1 all nvt temp 0.55 ${temp} ${taut}
fix 1 all nvt temp 0.55 0.55 ${taut}
fix 1 all nvt temp 0.55 0.55 0.3
Resetting global fix info from restart file:
  fix style: nvt, fix ID: 1
run ${steps}
run 3000000
Generated 0 of 1 mixed pair_coeff terms from geometric mixing rule
All restart file global fix info was re-assigned
Neighbor list info ...
  update: every = 1 steps, delay = 25 steps, check = yes
  max neighbors/atom: 2000, page size: 100000
  master list distance cutoff = 3
  ghost atom cutoff = 3
  binsize = 1.5, bins = 5 5 5
  1 neighbor lists, perpetual/occasional/extra = 1 0 0
  (1) pair lj/cut, perpetual
      attributes: half, newton on
      pair build: half/bin/atomonly/newton
      stencil: half/bin/3d
      bin: standard
Per MPI rank memory allocation (min/avg/max) = 4.078 | 4.081 | 4.082 Mbytes
   Step          Temp          E_pair         E_mol          TotEng         Press     
         0   0.55          -6.6214406      0             -5.7987322      5.5664492    
     30000   0.56839153    -6.796786       0             -5.946567       4.4986835    
     60000   0.58862388    -6.7645265      0             -5.8840433      4.8483401    
     90000   0.55563899    -6.7844173      0             -5.953274       4.48457      
    120000   0.53486106    -6.8463615      0             -6.0462985      4.2513035    
    150000   0.53627408    -6.7823099      0             -5.9801332      4.5789266    
    180000   0.57990571    -6.8134728      0             -5.9460305      4.4263151    
    210000   0.58045706    -6.7258557      0             -5.8575886      4.9828829    
    240000   0.57642265    -6.774234       0             -5.9120018      4.8191877    
    270000   0.55158868    -6.7497602      0             -5.9246754      4.9214288    
    300000   0.57692631    -6.8515631      0             -5.9885775      4.0995771    
    330000   0.55542532    -6.7626         0             -5.9317763      4.6570345    
    360000   0.49986071    -6.7692018      0             -6.0214935      4.4710527    
    390000   0.56281224    -6.8284213      0             -5.986548       4.3275893    
    420000   0.56791086    -6.7720565      0             -5.9225565      4.7142137    
    450000   0.5772783     -6.7696145      0             -5.9061023      4.6908533    
    480000   0.51010458    -6.7660277      0             -6.0029963      4.7390107    
    510000   0.51246254    -6.72531        0             -5.9587514      4.9481896    
    540000   0.52695495    -6.8070637      0             -6.018827       4.3215604    
    570000   0.51248776    -6.7706188      0             -6.0040225      4.7417369    
    600000   0.54855584    -6.7722296      0             -5.9516815      4.6468068    
    630000   0.52163046    -6.8453275      0             -6.0650552      4.2042891    
    660000   0.54328952    -6.8381845      0             -6.0255139      4.13566      
    690000   0.5544121     -6.7891677      0             -5.9598596      4.5443622    
    720000   0.56572142    -6.8719879      0             -6.0257629      4.0008402    
    750000   0.56946321    -6.7804998      0             -5.9286778      4.7174683    
    780000   0.5553143     -6.8389872      0             -6.0083296      4.3022299    
    810000   0.54872456    -6.8061364      0             -5.9853359      4.2948795    
    840000   0.54189975    -6.8101803      0             -5.9995886      4.5759148    
    870000   0.53066616    -6.7679391      0             -5.9741509      4.7341556    
    900000   0.5117698     -6.7608646      0             -5.9953423      4.6117056    
    930000   0.5581799     -6.810807       0             -5.9758629      4.5217833    
    960000   0.55833598    -6.7456079      0             -5.9104303      4.7650427    
    990000   0.55012661    -6.799047       0             -5.9761493      4.4468145    
   1020000   0.52419946    -6.7710667      0             -5.9869517      4.544815     
   1050000   0.52627245    -6.870577       0             -6.0833611      3.9148711    
   1080000   0.55217379    -6.7606496      0             -5.9346896      4.6220091    
   1110000   0.53606335    -6.7672948      0             -5.9654334      4.6604582    
   1140000   0.55337676    -6.872186       0             -6.0444266      3.9005395    
   1170000   0.53710627    -6.8555023      0             -6.0520809      3.9594139    
   1200000   0.58361667    -6.7861013      0             -5.913108       4.6168223    
   1230000   0.53976264    -6.793896       0             -5.986501       4.4409642    
   1260000   0.50707604    -6.7505134      0             -5.9920122      4.7391406    
   1290000   0.55183172    -6.8358235      0             -6.0103752      4.2723032    
   1320000   0.52866285    -6.7814248      0             -5.9906333      4.5733307    
   1350000   0.53939006    -6.8733285      0             -6.0664908      4.1130915    
   1380000   0.51626187    -6.78838        0             -6.0161383      4.5493105    
   1410000   0.57591503    -6.7626569      0             -5.901184       4.7343615    
   1440000   0.54939947    -6.8927328      0             -6.0709228      4.0035608    
   1470000   0.5416857     -6.8205122      0             -6.0102407      4.3317959    
   1500000   0.56179376    -6.838102       0             -5.9977522      4.3842822    
   1530000   0.57307732    -6.8207183      0             -5.9634902      4.5089752    
   1560000   0.56611259    -6.7619558      0             -5.9151457      4.7932661    
   1590000   0.56358437    -6.8182851      0             -5.9752568      4.3497934    
   1620000   0.55982243    -6.7905899      0             -5.9531889      4.5180067    
   1650000   0.55587679    -6.8657426      0             -6.0342436      4.0033911    
   1680000   0.57460097    -6.7246975      0             -5.8651902      5.0684332    
   1710000   0.55475737    -6.7967794      0             -5.9669549      4.5720852    
   1740000   0.56848091    -6.8111009      0             -5.9607482      4.4827234    
   1770000   0.52046954    -6.85154        0             -6.0730043      4.0649491    
   1800000   0.57904767    -6.9259554      0             -6.0597966      3.7195088    
   1830000   0.57383576    -6.8445513      0             -5.9861886      4.0619104    
   1860000   0.49389586    -6.8036515      0             -6.0648656      4.6816498    
   1890000   0.53165948    -6.8325217      0             -6.0372477      4.2631122    
   1920000   0.56790607    -6.8031807      0             -5.9536879      4.4505122    
   1950000   0.56021544    -6.8004651      0             -5.9624761      4.6902459    
   1980000   0.51999251    -6.8379299      0             -6.0601078      4.405121     
   2010000   0.56248725    -6.7910358      0             -5.9496486      4.5053391    
   2040000   0.52987202    -6.7565302      0             -5.96393        4.6568598    
   2070000   0.55676674    -6.7242071      0             -5.8913769      5.0358758    
   2100000   0.57048618    -6.7722989      0             -5.9189467      4.5501481    
   2130000   0.6073997     -6.8472565      0             -5.9386877      4.2424519    
   2160000   0.55710831    -6.8260483      0             -5.9927072      4.3153901    
   2190000   0.5894798     -6.8419789      0             -5.9602154      4.3127151    
   2220000   0.57689905    -6.7570207      0             -5.8940759      4.6351428    
   2250000   0.54050667    -6.8377301      0             -6.0292222      4.1928002    
   2280000   0.52678423    -6.780401       0             -5.9924195      4.617826     
   2310000   0.56756257    -6.7909128      0             -5.9419338      4.660219     
   2340000   0.59679576    -6.7462885      0             -5.8535815      4.8891788    
   2370000   0.51951635    -6.7909126      0             -6.0138028      4.401526     
   2400000   0.58663072    -6.7770936      0             -5.8995918      4.8269352    
   2430000   0.53453578    -6.787152       0             -5.9875755      4.5896441    
   2460000   0.53588027    -6.7243597      0             -5.9227721      4.9589507    
   2490000   0.54953779    -6.7918499      0             -5.9698329      4.5258899    
   2520000   0.54412486    -6.8427314      0             -6.0288113      4.0534817    
   2550000   0.52216772    -6.7979352      0             -6.0168594      4.2805261    
   2580000   0.50806638    -6.8012599      0             -6.0412772      4.4142229    
   2610000   0.53958343    -6.8079827      0             -6.0008558      4.4143808    
   2640000   0.57503119    -6.7935036      0             -5.9333528      4.3972494    
   2670000   0.5716573     -6.8296857      0             -5.9745817      4.4089252    
   2700000   0.53905932    -6.7592422      0             -5.9528993      4.8106109    
   2730000   0.52837782    -6.8159621      0             -6.0255969      4.2296681    
   2760000   0.58521849    -6.8273782      0             -5.9519888      4.2797126    
   2790000   0.56490089    -6.7672221      0             -5.9222246      4.6076423    
   2820000   0.52416984    -6.8566885      0             -6.0726177      4.1155655    
   2850000   0.58378457    -6.70774        0             -5.8344956      5.2096338    
   2880000   0.53687392    -6.8111466      0             -6.0080727      4.5533693    
   2910000   0.56098662    -6.8447663      0             -6.0056238      4.2433712    
   2940000   0.54854       -6.8908977      0             -6.0703733      3.9324556    
   2970000   0.55302608    -6.8509759      0             -6.0237411      4.1316181    
   3000000   0.54668618    -6.8346607      0             -6.0169093      4.1572284    
Loop time of 168.915 on 16 procs for 3000000 steps with 360 atoms

Performance: 4603487.349 tau/day, 17760.368 timesteps/s, 6.394 Matom-step/s
99.6% CPU use with 16 MPI tasks x 1 OpenMP threads

MPI task timing breakdown:
Section |  min time  |  avg time  |  max time  |%varavg| %total
---------------------------------------------------------------
Pair    | 29.519     | 31.014     | 33.635     |  19.1 | 18.36
Neigh   | 3.8516     | 4.0341     | 4.4014     |   7.6 |  2.39
Comm    | 105.74     | 113.92     | 122.99     |  59.8 | 67.44
Output  | 0.005321   | 0.0054081  | 0.0065282  |   0.4 |  0.00
Modify  | 7.9761     | 16.655     | 23.272     | 138.7 |  9.86
Other   |            | 3.289      |            |       |  1.95

Nlocal:           22.5 ave          27 max          18 min
Histogram: 1 1 0 4 2 3 2 1 1 1
Nghost:        791.125 ave         815 max         774 min
Histogram: 3 1 2 2 5 0 0 1 0 2
Neighs:        1298.25 ave        1543 max        1058 min
Histogram: 1 1 3 1 2 2 3 1 0 2

Total # of neighbors = 20772
Ave neighs/atom = 57.7
Neighbor list builds = 84938
Dangerous builds = 657
Total wall time: 0:02:48
