
include ${pot}.lmp
include kalj.lmp
units lj
atom_style atomic

variable dimensions equal 3
variable density equal 1.2
variable fraca equal 0.8

dimension ${dimensions}
dimension 3
read_restart ${prevbasename}.final.lmprestart.${prevsteps}
read_restart equil/kalj_T2_n360_v300_10000_1.final.lmprestart.${prevsteps}
read_restart equil/kalj_T2_n360_v300_10000_1.final.lmprestart.10000
Reading restart file ...
  restart file = 15 Sep 2022, LAMMPS = 15 Sep 2022
  restoring atom style atomic from restart
  orthogonal box = (0 0 0) to (6.6943295 6.6943295 6.6943295)
  2 by 2 by 4 MPI processor grid
  restoring pair style lj/cut from restart
  360 atoms
  read_restart CPU = 0.006 seconds
include ${pot}_particles.lmp
include kalj_particles.lmp
mass * 1.0 #  set mass 1.0 for all types

pair_style lj/cut 2.5
#pair coeffs type1 type2 eps sigma
pair_coeff 1 1 1.0 1.00 2.5
pair_coeff 1 2 1.5 0.80 2.0
pair_coeff 2 2 0.5 0.88 2.2
pair_modify shift yes
reset_timestep 0

print "Setting up annealing run"
Setting up annealing run
dump 1 all atom ${dumptime} ${basename}.lammpstrj
dump 1 all atom 10000 ${basename}.lammpstrj
dump 1 all atom 10000 equil/kalj_T1.5_n360_v300_10000_1.lammpstrj
#dump_modify 1 sort id scale no

restart ${restarttime} ${basename}.restart
restart 10000 ${basename}.restart
restart 10000 equil/kalj_T1.5_n360_v300_10000_1.restart
restart ${steps} ${basename}.final.lmprestart
restart 10000 ${basename}.final.lmprestart
restart 10000 equil/kalj_T1.5_n360_v300_10000_1.final.lmprestart

thermo ${thermotime}
thermo 1000
timestep ${timestep}
timestep 0.002

neighbor 0.5 bin
neigh_modify every 1 delay ${neighborstep} check yes
neigh_modify every 1 delay 20 check yes

velocity all create ${temp} ${id} dist gaussian
velocity all create 1.5 ${id} dist gaussian
velocity all create 1.5 1 dist gaussian
fix 1 all nvt temp ${temp} ${temp} ${taut}
fix 1 all nvt temp 1.5 ${temp} ${taut}
fix 1 all nvt temp 1.5 1.5 ${taut}
fix 1 all nvt temp 1.5 1.5 0.2
run ${steps}
run 10000
Generated 0 of 1 mixed pair_coeff terms from geometric mixing rule
Neighbor list info ...
  update: every = 1 steps, delay = 20 steps, check = yes
  max neighbors/atom: 2000, page size: 100000
  master list distance cutoff = 3
  ghost atom cutoff = 3
  binsize = 1.5, bins = 5 5 5
  1 neighbor lists, perpetual/occasional/extra = 1 0 0
  (1) pair lj/cut, perpetual
      attributes: half, newton on
      pair build: half/bin/atomonly/newton
      stencil: half/bin/3d
      bin: standard
Per MPI rank memory allocation (min/avg/max) = 4.077 | 4.081 | 4.083 Mbytes
   Step          Temp          E_pair         E_mol          TotEng         Press     
         0   1.5            6.4560955      0              8.6998455      80.96697     
      1000   1.5691757     -5.2621942      0             -2.9149688      15.064957    
      2000   1.541516      -5.3144227      0             -3.0085716      14.746196    
      3000   1.4451036     -5.3130075      0             -3.1513734      14.709999    
      4000   1.523714      -5.3202448      0             -3.0410227      14.758221    
      5000   1.565648      -5.27804        0             -2.9360915      14.976233    
      6000   1.5277926     -5.2099939      0             -2.9246708      15.356324    
      7000   1.4877973     -5.3624384      0             -3.1369416      14.516245    
      8000   1.5363428     -5.3448699      0             -3.0467572      14.629266    
      9000   1.5457307     -5.2367422      0             -2.9245867      15.359808    
     10000   1.5207464     -5.3415525      0             -3.0667692      14.326775    
Loop time of 0.585865 on 16 procs for 10000 steps with 360 atoms

Performance: 2949484.881 tau/day, 17068.778 timesteps/s, 6.145 Matom-step/s
99.1% CPU use with 16 MPI tasks x 1 OpenMP threads

MPI task timing breakdown:
Section |  min time  |  avg time  |  max time  |%varavg| %total
---------------------------------------------------------------
Pair    | 0.099506   | 0.10334    | 0.11214    |   1.0 | 17.64
Neigh   | 0.015783   | 0.016292   | 0.017049   |   0.3 |  2.78
Comm    | 0.36896    | 0.39307    | 0.42448    |   3.4 | 67.09
Output  | 0.0013471  | 0.001355   | 0.0014294  |   0.1 |  0.23
Modify  | 0.029388   | 0.060443   | 0.082685   |   8.6 | 10.32
Other   |            | 0.01137    |            |       |  1.94

Nlocal:           22.5 ave          27 max          18 min
Histogram: 1 0 2 3 3 2 1 2 1 1
Nghost:          781.5 ave         797 max         766 min
Histogram: 3 2 0 0 4 0 2 1 2 2
Neighs:        1302.69 ave        1609 max        1092 min
Histogram: 3 0 3 4 1 1 1 1 1 1

Total # of neighbors = 20843
Ave neighs/atom = 57.897222
Neighbor list builds = 350
Dangerous builds = 8
Total wall time: 0:00:00
