
include ${pot}.lmp
include kalj.lmp
units lj
atom_style atomic

variable dimensions equal 3
variable density equal 1.2
variable fraca equal 0.8

dimension ${dimensions}
dimension 3
read_restart ${prevbasename}.final.lmprestart.${prevsteps}
read_restart equil/kalj_T0.5_n360_v300_10000000_1.final.lmprestart.${prevsteps}
read_restart equil/kalj_T0.5_n360_v300_10000000_1.final.lmprestart.10000000
Reading restart file ...
  restart file = 15 Sep 2022, LAMMPS = 15 Sep 2022
  restoring atom style atomic from restart
  orthogonal box = (0 0 0) to (6.6943295 6.6943295 6.6943295)
  2 by 2 by 4 MPI processor grid
  restoring pair style lj/cut from restart
  360 atoms
  read_restart CPU = 0.006 seconds
include ${pot}_particles.lmp
include kalj_particles.lmp
mass * 1.0 #  set mass 1.0 for all types

pair_style lj/cut 2.5
#pair coeffs type1 type2 eps sigma
pair_coeff 1 1 1.0 1.00 2.5
pair_coeff 1 2 1.5 0.80 2.0
pair_coeff 2 2 0.5 0.88 2.2
pair_modify shift yes
reset_timestep 0

print "Setting up annealing run"
Setting up annealing run
dump 1 all atom ${dumptime} ${basename}.lammpstrj
dump 1 all atom 3000000 ${basename}.lammpstrj
dump 1 all atom 3000000 equil/kalj_T0.475_n360_v300_30000000_1.lammpstrj
#dump_modify 1 sort id scale no

restart ${restarttime} ${basename}.restart
restart 30000000 ${basename}.restart
restart 30000000 equil/kalj_T0.475_n360_v300_30000000_1.restart
restart ${steps} ${basename}.final.lmprestart
restart 30000000 ${basename}.final.lmprestart
restart 30000000 equil/kalj_T0.475_n360_v300_30000000_1.final.lmprestart

thermo ${thermotime}
thermo 300000
timestep ${timestep}
timestep 0.003

neighbor 0.5 bin
neigh_modify every 1 delay ${neighborstep} check yes
neigh_modify every 1 delay 25 check yes

velocity all create ${temp} ${id} dist gaussian
velocity all create 0.475 ${id} dist gaussian
velocity all create 0.475 1 dist gaussian
fix 1 all nvt temp ${temp} ${temp} ${taut}
fix 1 all nvt temp 0.475 ${temp} ${taut}
fix 1 all nvt temp 0.475 0.475 ${taut}
fix 1 all nvt temp 0.475 0.475 0.3
Resetting global fix info from restart file:
  fix style: nvt, fix ID: 1
run ${steps}
run 30000000
Generated 0 of 1 mixed pair_coeff terms from geometric mixing rule
All restart file global fix info was re-assigned
Neighbor list info ...
  update: every = 1 steps, delay = 25 steps, check = yes
  max neighbors/atom: 2000, page size: 100000
  master list distance cutoff = 3
  ghost atom cutoff = 3
  binsize = 1.5, bins = 5 5 5
  1 neighbor lists, perpetual/occasional/extra = 1 0 0
  (1) pair lj/cut, perpetual
      attributes: half, newton on
      pair build: half/bin/atomonly/newton
      stencil: half/bin/3d
      bin: standard
Per MPI rank memory allocation (min/avg/max) = 4.077 | 4.082 | 4.083 Mbytes
   Step          Temp          E_pair         E_mol          TotEng         Press     
         0   0.475         -6.8949412      0             -6.1844204      3.9219407    
    300000   0.48266796    -6.9283192      0             -6.2063283      3.8369381    
    600000   0.46258719    -6.919682       0             -6.2277286      3.6191102    
    900000   0.47930777    -6.9788874      0             -6.2619229      3.3748021    
   1200000   0.4691316     -6.9630505      0             -6.2613079      3.3016028    
   1500000   0.45532518    -7.0070375      0             -6.3259469      3.0813755    
   1800000   0.49024939    -6.9441351      0             -6.2108037      3.5469402    
   2100000   0.49255885    -6.9127876      0             -6.1760017      3.6200204    
   2400000   0.46780355    -6.9150106      0             -6.2152545      3.7332688    
   2700000   0.47085201    -6.9655804      0             -6.2612643      3.429073     
   3000000   0.44957765    -6.9548322      0             -6.282339       3.4164251    
   3300000   0.5404563     -6.9045212      0             -6.0960887      3.8032101    
   3600000   0.4708897     -7.0018048      0             -6.2974323      3.0865862    
   3900000   0.46395511    -6.9036841      0             -6.2096846      3.7364824    
   4200000   0.51579338    -6.9549708      0             -6.1834298      3.5241971    
   4500000   0.49033759    -6.9445578      0             -6.2110945      3.546941     
   4800000   0.50811081    -6.9242683      0             -6.1642192      3.5448504    
   5100000   0.44029841    -6.9017015      0             -6.2430884      3.6627045    
   5400000   0.49108471    -6.9474438      0             -6.212863       3.4701375    
   5700000   0.43892615    -6.9409743      0             -6.2844139      3.5038662    
   6000000   0.48089138    -6.9344733      0             -6.2151399      3.5970941    
   6300000   0.44388181    -7.0077386      0             -6.3437654      3.1018925    
   6600000   0.45558676    -6.9857108      0             -6.304229       3.3513812    
   6900000   0.47467108    -6.9754526      0             -6.2654238      3.410561     
   7200000   0.45811321    -6.9598245      0             -6.2745635      3.4244383    
   7500000   0.49176277    -6.962345       0             -6.2267499      3.5203574    
   7800000   0.44893664    -6.9310558      0             -6.2595214      3.6334069    
   8100000   0.44757279    -6.9535345      0             -6.2840402      3.5478708    
   8400000   0.50665175    -6.9737514      0             -6.2158848      3.3577636    
   8700000   0.45128794    -6.9386954      0             -6.2636439      3.5439679    
   9000000   0.48283524    -6.9403798      0             -6.2181388      3.6925792    
   9300000   0.48339733    -6.9270978      0             -6.2040159      3.7863646    
   9600000   0.48453762    -6.9914233      0             -6.2666358      3.2802774    
   9900000   0.50373713    -7.0382189      0             -6.2847121      2.967562     
  10200000   0.47763386    -6.9592738      0             -6.2448131      3.49572      
  10500000   0.48478424    -6.9911631      0             -6.2660066      3.0979449    
  10800000   0.45087827    -6.9186231      0             -6.2441843      3.5979183    
  11100000   0.48824029    -6.9825354      0             -6.2522093      3.3565116    
  11400000   0.45889517    -6.965695       0             -6.2792643      3.357168     
  11700000   0.48643342    -7.013586       0             -6.2859627      3.1506663    
  12000000   0.45391869    -6.9704917      0             -6.291505       3.3841421    
  12300000   0.49556548    -7.0014787      0             -6.2601953      3.3023603    
  12600000   0.45733301    -6.9726411      0             -6.2885471      3.3879582    
  12900000   0.46287431    -6.9387341      0             -6.2463513      3.4426919    
  13200000   0.44046969    -6.9602452      0             -6.3013759      3.395826     
  13500000   0.47054776    -6.9481405      0             -6.2442795      3.4022125    
  13800000   0.46334653    -6.939974       0             -6.2468848      3.5736592    
  14100000   0.48987908    -7.0009068      0             -6.2681294      3.079196     
  14400000   0.45136598    -6.9962705      0             -6.3211022      3.0529698    
  14700000   0.47600349    -6.9562806      0             -6.2442587      3.4640986    
  15000000   0.4982265     -6.9869684      0             -6.2417046      3.3230319    
  15300000   0.45276145    -6.9650822      0             -6.2878266      3.250998     
  15600000   0.46520324    -6.9073085      0             -6.211442       3.6536962    
  15900000   0.44213741    -6.960164       0             -6.2988001      3.3668295    
  16200000   0.48856581    -6.9334782      0             -6.2026652      3.5584164    
  16500000   0.45866958    -6.9058591      0             -6.2197658      3.6432712    
  16800000   0.49791001    -6.9043698      0             -6.1595795      3.7818753    
  17100000   0.50884392    -6.923924       0             -6.1627783      3.6595473    
  17400000   0.48762099    -6.9930522      0             -6.2636525      3.0652875    
  17700000   0.48878141    -6.9421163      0             -6.2109808      3.4923638    
  18000000   0.46597387    -7.006951       0             -6.3099318      2.8774269    
  18300000   0.44086613    -6.9736786      0             -6.3142164      3.2760031    
  18600000   0.47322776    -6.9984671      0             -6.2905973      3.0126699    
  18900000   0.51224982    -6.9600486      0             -6.1938082      3.4125118    
  19200000   0.47574239    -6.9855245      0             -6.2738932      3.1498298    
  19500000   0.48622078    -6.9891674      0             -6.2618621      3.1963064    
  19800000   0.44775092    -6.965273       0             -6.2955122      3.2154565    
  20100000   0.47950143    -6.9221834      0             -6.2049292      3.4726336    
  20400000   0.46332264    -6.9848381      0             -6.2917846      3.2557585    
  20700000   0.47587803    -6.9545052      0             -6.242671       3.5629033    
  21000000   0.42170981    -6.9680719      0             -6.3372643      3.2111651    
  21300000   0.50787387    -6.9752323      0             -6.2155376      3.480656     
  21600000   0.47468976    -6.986827       0             -6.2767702      3.1961341    
  21900000   0.45012171    -7.0282439      0             -6.3549369      2.9745591    
  22200000   0.49001605    -7.0173956      0             -6.2844133      3.2002836    
  22500000   0.45227973    -6.9863914      0             -6.3098563      3.1388122    
  22800000   0.48476357    -6.9244774      0             -6.1993519      3.760819     
  23100000   0.49706824    -7.0290868      0             -6.2855556      3.0875973    
  23400000   0.46709889    -6.975885       0             -6.2771829      3.4731152    
  23700000   0.45361433    -6.9366807      0             -6.2581492      3.5079535    
  24000000   0.50352367    -6.918807       0             -6.1656195      3.8133367    
  24300000   0.46824793    -6.881591       0             -6.1811701      3.9274306    
  24600000   0.48767004    -6.9387188      0             -6.2092457      3.7257138    
  24900000   0.45826866    -6.9471286      0             -6.261635       3.3044412    
  25200000   0.49746441    -6.9975919      0             -6.2534681      3.282748     
  25500000   0.50453064    -6.9765346      0             -6.2218409      3.3051943    
  25800000   0.50184833    -7.0153494      0             -6.2646679      2.9091996    
  26100000   0.48144914    -6.997393       0             -6.2772253      3.1966942    
  26400000   0.49461174    -6.9502096      0             -6.2103529      3.610876     
  26700000   0.4578635     -6.9863403      0             -6.3014528      3.2708137    
  27000000   0.50174773    -6.9649898      0             -6.2144588      3.5935506    
  27300000   0.51651791    -6.9347269      0             -6.1621022      3.5622827    
  27600000   0.51784161    -6.897701       0             -6.1230963      3.6551213    
  27900000   0.51273486    -6.9285334      0             -6.1615675      3.763063     
  28200000   0.47186769    -6.9842096      0             -6.2783742      3.2756825    
  28500000   0.52165876    -6.9509162      0             -6.1706016      3.4621852    
  28800000   0.47732349    -6.9978482      0             -6.2838518      3.0632549    
  29100000   0.43820431    -6.9523172      0             -6.2968366      3.4325725    
  29400000   0.489951      -7.0133413      0             -6.2804563      3.2136376    
  29700000   0.47532818    -6.9472823      0             -6.2362706      3.4622001    
  30000000   0.49306215    -6.8642698      0             -6.126731       4.0643562    
Loop time of 1699.5 on 16 procs for 30000000 steps with 360 atoms

Performance: 4575474.082 tau/day, 17652.292 timesteps/s, 6.355 Matom-step/s
99.6% CPU use with 16 MPI tasks x 1 OpenMP threads

MPI task timing breakdown:
Section |  min time  |  avg time  |  max time  |%varavg| %total
---------------------------------------------------------------
Pair    | 289.79     | 313.07     | 346.6      | 103.0 | 18.42
Neigh   | 34.727     | 37.128     | 40.819     |  32.5 |  2.18
Comm    | 1053.9     | 1135       | 1241.1     | 193.9 | 66.78
Output  | 0.0065955  | 0.0067258  | 0.0082756  |   0.5 |  0.00
Modify  | 89.503     | 177.47     | 236.29     | 393.0 | 10.44
Other   |            | 36.85      |            |       |  2.17

Nlocal:           22.5 ave          25 max          20 min
Histogram: 3 0 2 0 2 0 4 0 3 2
Nghost:         788.25 ave         811 max         771 min
Histogram: 6 2 0 0 0 0 1 2 4 1
Neighs:        1299.88 ave        1427 max        1087 min
Histogram: 1 1 0 0 5 0 0 2 4 3

Total # of neighbors = 20798
Ave neighs/atom = 57.772222
Neighbor list builds = 770443
Dangerous builds = 978
Total wall time: 0:28:19
