
include ${pot}.lmp
include kalj.lmp
units lj
atom_style atomic

variable dimensions equal 3
variable density equal 1.2
variable fraca equal 0.8

dimension ${dimensions}
dimension 3
read_restart ${prevbasename}.final.lmprestart.${prevsteps}
read_restart equil/kalj_T1.5_n360_v300_10000_1.final.lmprestart.${prevsteps}
read_restart equil/kalj_T1.5_n360_v300_10000_1.final.lmprestart.10000
Reading restart file ...
  restart file = 15 Sep 2022, LAMMPS = 15 Sep 2022
  restoring atom style atomic from restart
  orthogonal box = (0 0 0) to (6.6943295 6.6943295 6.6943295)
  2 by 2 by 4 MPI processor grid
  restoring pair style lj/cut from restart
  360 atoms
  read_restart CPU = 0.006 seconds
include ${pot}_particles.lmp
include kalj_particles.lmp
mass * 1.0 #  set mass 1.0 for all types

pair_style lj/cut 2.5
#pair coeffs type1 type2 eps sigma
pair_coeff 1 1 1.0 1.00 2.5
pair_coeff 1 2 1.5 0.80 2.0
pair_coeff 2 2 0.5 0.88 2.2
pair_modify shift yes
reset_timestep 0

print "Setting up annealing run"
Setting up annealing run
dump 1 all atom ${dumptime} ${basename}.lammpstrj
dump 1 all atom 10000 ${basename}.lammpstrj
dump 1 all atom 10000 equil/kalj_T1_n360_v300_50000_1.lammpstrj
#dump_modify 1 sort id scale no

restart ${restarttime} ${basename}.restart
restart 30000 ${basename}.restart
restart 30000 equil/kalj_T1_n360_v300_50000_1.restart
restart ${steps} ${basename}.final.lmprestart
restart 50000 ${basename}.final.lmprestart
restart 50000 equil/kalj_T1_n360_v300_50000_1.final.lmprestart

thermo ${thermotime}
thermo 2000
timestep ${timestep}
timestep 0.002

neighbor 0.5 bin
neigh_modify every 1 delay ${neighborstep} check yes
neigh_modify every 1 delay 20 check yes

velocity all create ${temp} ${id} dist gaussian
velocity all create 1 ${id} dist gaussian
velocity all create 1 1 dist gaussian
fix 1 all nvt temp ${temp} ${temp} ${taut}
fix 1 all nvt temp 1 ${temp} ${taut}
fix 1 all nvt temp 1 1 ${taut}
fix 1 all nvt temp 1 1 0.2
Resetting global fix info from restart file:
  fix style: nvt, fix ID: 1
run ${steps}
run 50000
Generated 0 of 1 mixed pair_coeff terms from geometric mixing rule
All restart file global fix info was re-assigned
Neighbor list info ...
  update: every = 1 steps, delay = 20 steps, check = yes
  max neighbors/atom: 2000, page size: 100000
  master list distance cutoff = 3
  ghost atom cutoff = 3
  binsize = 1.5, bins = 5 5 5
  1 neighbor lists, perpetual/occasional/extra = 1 0 0
  (1) pair lj/cut, perpetual
      attributes: half, newton on
      pair build: half/bin/atomonly/newton
      stencil: half/bin/3d
      bin: standard
Per MPI rank memory allocation (min/avg/max) = 4.077 | 4.08 | 4.083 Mbytes
   Step          Temp          E_pair         E_mol          TotEng         Press     
         0   1             -5.3415525      0             -3.8457191      13.703615    
      2000   1.0087851     -6.0134698      0             -4.5044954      9.9449235    
      4000   0.99337059    -5.9788807      0             -4.4929638      10.045904    
      6000   0.96326398    -6.0452924      0             -4.6044101      9.7450281    
      8000   1.0134982     -6.09002        0             -4.5739955      9.3684852    
     10000   0.99921112    -6.1032834      0             -4.6086301      9.5457085    
     12000   0.92276041    -6.0575039      0             -4.6772081      9.5205762    
     14000   0.93193282    -6.0518185      0             -4.6578024      9.5668858    
     16000   0.97521152    -5.9575762      0             -4.4988223      10.288647    
     18000   1.0671967     -5.9502145      0             -4.3538661      10.384111    
     20000   0.88856345    -6.0035224      0             -4.6743796      9.7438425    
     22000   1.0504257     -6.1284077      0             -4.557146       9.2372353    
     24000   1.0634797     -5.9660529      0             -4.3752644      10.230295    
     26000   1.0008355     -6.0538338      0             -4.5567507      9.7618766    
     28000   0.98303572    -6.037998       0             -4.5675404      9.6768007    
     30000   0.99680658    -6.0008127      0             -4.5097562      9.8275179    
     32000   0.98511659    -6.1095059      0             -4.6359357      9.2450092    
     34000   1.0563941     -5.9941476      0             -4.413958       10.070467    
     36000   1.0169888     -5.9699064      0             -4.4486605      10.234034    
     38000   0.94218231    -6.0397462      0             -4.6303984      9.6916051    
     40000   0.97608591    -5.9897799      0             -4.5297181      9.921037     
     42000   0.99688133    -6.0658089      0             -4.5746406      9.5366753    
     44000   1.0223302     -5.9645856      0             -4.4353499      10.271501    
     46000   0.98535819    -5.9364268      0             -4.4624952      10.16332     
     48000   1.0147426     -6.0355807      0             -4.5176948      9.6789891    
     50000   1.024731      -5.9533226      0             -4.4204959      10.353944    
Loop time of 2.77123 on 16 procs for 50000 steps with 360 atoms

Performance: 3117749.609 tau/day, 18042.532 timesteps/s, 6.495 Matom-step/s
99.5% CPU use with 16 MPI tasks x 1 OpenMP threads

MPI task timing breakdown:
Section |  min time  |  avg time  |  max time  |%varavg| %total
---------------------------------------------------------------
Pair    | 0.49236    | 0.50681    | 0.51996    |   1.2 | 18.29
Neigh   | 0.061167   | 0.063385   | 0.065673   |   0.5 |  2.29
Comm    | 1.7552     | 1.8462     | 1.9676     |   5.5 | 66.62
Output  | 0.0026449  | 0.0026682  | 0.0028983  |   0.1 |  0.10
Modify  | 0.1629     | 0.27866    | 0.36574    |  12.9 | 10.06
Other   |            | 0.07347    |            |       |  2.65

Nlocal:           22.5 ave          25 max          20 min
Histogram: 2 0 2 0 5 0 2 0 3 2
Nghost:        785.438 ave         796 max         775 min
Histogram: 3 0 1 2 2 2 2 1 1 2
Neighs:        1298.56 ave        1410 max        1155 min
Histogram: 1 3 2 1 1 0 0 1 3 4

Total # of neighbors = 20777
Ave neighs/atom = 57.713889
Neighbor list builds = 1357
Dangerous builds = 0
Total wall time: 0:00:02
