
include ${pot}.lmp
include kalj.lmp
units lj
atom_style atomic

variable dimensions equal 3
variable density equal 1.2
variable fraca equal 0.8

dimension ${dimensions}
dimension 3
read_restart ${prevbasename}.final.lmprestart.${prevsteps}
read_restart equil/kalj_T0.55_n360_v300_3000000_1.final.lmprestart.${prevsteps}
read_restart equil/kalj_T0.55_n360_v300_3000000_1.final.lmprestart.3000000
Reading restart file ...
  restart file = 15 Sep 2022, LAMMPS = 15 Sep 2022
  restoring atom style atomic from restart
  orthogonal box = (0 0 0) to (6.6943295 6.6943295 6.6943295)
  2 by 2 by 4 MPI processor grid
  restoring pair style lj/cut from restart
  360 atoms
  read_restart CPU = 0.006 seconds
include ${pot}_particles.lmp
include kalj_particles.lmp
mass * 1.0 #  set mass 1.0 for all types

pair_style lj/cut 2.5
#pair coeffs type1 type2 eps sigma
pair_coeff 1 1 1.0 1.00 2.5
pair_coeff 1 2 1.5 0.80 2.0
pair_coeff 2 2 0.5 0.88 2.2
pair_modify shift yes
reset_timestep 0

print "Setting up annealing run"
Setting up annealing run
dump 1 all atom ${dumptime} ${basename}.lammpstrj
dump 1 all atom 1000000 ${basename}.lammpstrj
dump 1 all atom 1000000 equil/kalj_T0.5_n360_v300_10000000_1.lammpstrj
#dump_modify 1 sort id scale no

restart ${restarttime} ${basename}.restart
restart 10000000 ${basename}.restart
restart 10000000 equil/kalj_T0.5_n360_v300_10000000_1.restart
restart ${steps} ${basename}.final.lmprestart
restart 10000000 ${basename}.final.lmprestart
restart 10000000 equil/kalj_T0.5_n360_v300_10000000_1.final.lmprestart

thermo ${thermotime}
thermo 100000
timestep ${timestep}
timestep 0.003

neighbor 0.5 bin
neigh_modify every 1 delay ${neighborstep} check yes
neigh_modify every 1 delay 25 check yes

velocity all create ${temp} ${id} dist gaussian
velocity all create 0.5 ${id} dist gaussian
velocity all create 0.5 1 dist gaussian
fix 1 all nvt temp ${temp} ${temp} ${taut}
fix 1 all nvt temp 0.5 ${temp} ${taut}
fix 1 all nvt temp 0.5 0.5 ${taut}
fix 1 all nvt temp 0.5 0.5 0.3
Resetting global fix info from restart file:
  fix style: nvt, fix ID: 1
run ${steps}
run 10000000
Generated 0 of 1 mixed pair_coeff terms from geometric mixing rule
All restart file global fix info was re-assigned
Neighbor list info ...
  update: every = 1 steps, delay = 25 steps, check = yes
  max neighbors/atom: 2000, page size: 100000
  master list distance cutoff = 3
  ghost atom cutoff = 3
  binsize = 1.5, bins = 5 5 5
  1 neighbor lists, perpetual/occasional/extra = 1 0 0
  (1) pair lj/cut, perpetual
      attributes: half, newton on
      pair build: half/bin/atomonly/newton
      stencil: half/bin/3d
      bin: standard
Per MPI rank memory allocation (min/avg/max) = 4.077 | 4.081 | 4.083 Mbytes
   Step          Temp          E_pair         E_mol          TotEng         Press     
         0   0.5           -6.8346607      0             -6.086744       4.1013606    
    100000   0.47239506    -6.8725917      0             -6.1659675      3.9907987    
    200000   0.49311962    -6.8498588      0             -6.112234       4.1713288    
    300000   0.53362727    -6.9002803      0             -6.1020629      3.8311494    
    400000   0.51216474    -6.8829901      0             -6.1168771      3.9076835    
    500000   0.47377414    -6.841567       0             -6.1328799      4.2888279    
    600000   0.49187939    -6.8970242      0             -6.1612546      3.8273314    
    700000   0.54182495    -6.9137795      0             -6.1032997      3.821292     
    800000   0.47957462    -6.8517513      0             -6.1343876      3.9096537    
    900000   0.44915836    -6.8470947      0             -6.1752286      3.9768317    
   1000000   0.50144467    -6.9035637      0             -6.153486       3.793619     
   1100000   0.49462434    -6.867006       0             -6.1271305      4.0804895    
   1200000   0.49586381    -6.9098281      0             -6.1680984      3.8153017    
   1300000   0.48139847    -6.8647254      0             -6.1446335      3.9318862    
   1400000   0.49672215    -6.8793319      0             -6.1363184      3.8409542    
   1500000   0.49707324    -6.8765608      0             -6.133022       3.8895866    
   1600000   0.51365378    -6.8899395      0             -6.121599       3.9215335    
   1700000   0.51513316    -6.9529631      0             -6.1824097      3.530313     
   1800000   0.50141975    -6.9631859      0             -6.2131456      3.429638     
   1900000   0.51973195    -6.937792       0             -6.1603597      3.621614     
   2000000   0.46825513    -6.9058262      0             -6.2053946      3.8116697    
   2100000   0.51470088    -6.9158472      0             -6.1459405      3.8142254    
   2200000   0.48451802    -6.9467003      0             -6.2219421      3.508446     
   2300000   0.48926069    -6.9260556      0             -6.1942031      3.58332      
   2400000   0.4919794     -6.8945827      0             -6.1586636      3.8126268    
   2500000   0.52750902    -6.8981826      0             -6.1091171      3.8089488    
   2600000   0.51504265    -6.9337761      0             -6.1633581      3.817934     
   2700000   0.48761979    -6.9287361      0             -6.1993381      3.652303     
   2800000   0.51573912    -6.8897183      0             -6.1182585      3.9947909    
   2900000   0.48549936    -6.9006601      0             -6.174434       3.8310302    
   3000000   0.51739575    -6.9210899      0             -6.1471521      3.6750399    
   3100000   0.48317162    -6.9035314      0             -6.1807872      3.7400056    
   3200000   0.52590283    -6.8799126      0             -6.0932496      3.9201843    
   3300000   0.51919078    -6.8823695      0             -6.1057466      3.9782219    
   3400000   0.51015898    -6.9339923      0             -6.1708795      3.5905008    
   3500000   0.50755223    -6.9244516      0             -6.1652381      3.5291803    
   3600000   0.48679824    -6.8890502      0             -6.1608812      3.8370034    
   3700000   0.50107272    -6.9542877      0             -6.2047664      3.3427994    
   3800000   0.46578429    -6.9285522      0             -6.2318165      3.6854393    
   3900000   0.5213859     -6.903367       0             -6.1234606      3.7426734    
   4000000   0.48540265    -6.9232218      0             -6.1971404      3.7069368    
   4100000   0.5531957     -6.9082941      0             -6.0808055      3.7882448    
   4200000   0.52770988    -6.9290297      0             -6.1396637      3.5464198    
   4300000   0.49375304    -6.9193341      0             -6.1807619      3.5969252    
   4400000   0.46913883    -6.9200625      0             -6.218309       3.7396003    
   4500000   0.46621999    -6.9402236      0             -6.2428362      3.533074     
   4600000   0.53001683    -6.9444555      0             -6.1516386      3.4429819    
   4700000   0.53339707    -6.8965469      0             -6.0986738      3.7701368    
   4800000   0.48070122    -6.8860971      0             -6.1670482      3.9263502    
   4900000   0.46874485    -6.8173655      0             -6.1162013      4.3582776    
   5000000   0.51598605    -6.8529206      0             -6.0810914      4.010272     
   5100000   0.49294765    -6.9052805      0             -6.167913       3.7351708    
   5200000   0.46646257    -6.8945751      0             -6.1968248      3.8856128    
   5300000   0.4608092     -6.9308311      0             -6.2415373      3.6171925    
   5400000   0.49162239    -6.8394489      0             -6.1040638      4.1197599    
   5500000   0.51741088    -6.8581         0             -6.0841395      4.1325862    
   5600000   0.53640796    -6.9077972      0             -6.1054203      3.7938903    
   5700000   0.50710595    -6.894932       0             -6.136386       3.8556829    
   5800000   0.50177936    -6.8933222      0             -6.1427439      3.8225115    
   5900000   0.51130852    -6.9241231      0             -6.1592907      3.7340241    
   6000000   0.47966848    -6.877531       0             -6.1600269      3.7462594    
   6100000   0.46644709    -6.8982814      0             -6.2005543      3.7830526    
   6200000   0.50096739    -6.934449       0             -6.1850853      3.6782659    
   6300000   0.48609902    -6.8539026      0             -6.1267795      4.0758755    
   6400000   0.50878943    -6.9381395      0             -6.1770753      3.4355332    
   6500000   0.51770878    -6.8877803      0             -6.1133742      3.9084562    
   6600000   0.49059868    -6.8600419      0             -6.126188       3.951014     
   6700000   0.52083168    -6.9534067      0             -6.1743293      3.5201325    
   6800000   0.52351599    -6.9182473      0             -6.1351546      3.8244059    
   6900000   0.51246082    -6.9345812      0             -6.1680253      3.4996701    
   7000000   0.47951763    -6.9139569      0             -6.1966784      3.8491678    
   7100000   0.49180479    -6.9214955      0             -6.1858375      3.7929178    
   7200000   0.47652043    -6.8872973      0             -6.1745021      3.8325359    
   7300000   0.53728711    -6.9186412      0             -6.1149493      3.636212     
   7400000   0.52198396    -6.9735492      0             -6.1927481      3.3705063    
   7500000   0.51566083    -6.9080199      0             -6.1366773      3.8561642    
   7600000   0.46976883    -6.9152154      0             -6.2125195      3.4323994    
   7700000   0.49491309    -6.8706717      0             -6.1303642      3.9019658    
   7800000   0.51344915    -6.8693091      0             -6.1012747      4.0464443    
   7900000   0.4596529     -6.8499607      0             -6.1623965      4.0999605    
   8000000   0.52150046    -6.887828       0             -6.1077502      3.8309617    
   8100000   0.50057218    -6.9156397      0             -6.1668671      3.6025207    
   8200000   0.53834083    -6.8936597      0             -6.0883915      3.8828951    
   8300000   0.47555433    -6.9192601      0             -6.20791        3.5569059    
   8400000   0.48487839    -6.8856658      0             -6.1603685      3.7886443    
   8500000   0.50412363    -6.8879771      0             -6.1338922      3.7943695    
   8600000   0.47398096    -6.9792309      0             -6.2702344      3.1764753    
   8700000   0.5207816     -7.0042612      0             -6.2252587      3.1580343    
   8800000   0.51877307    -6.9534101      0             -6.177412       3.4264741    
   8900000   0.50055597    -6.970568       0             -6.2218197      3.4203203    
   9000000   0.50494598    -6.9713946      0             -6.2160796      3.2845109    
   9100000   0.48378156    -6.884236       0             -6.1605794      3.7139735    
   9200000   0.50450989    -6.8779348      0             -6.1232721      3.8822689    
   9300000   0.49520402    -6.9045247      0             -6.163782       3.7286049    
   9400000   0.49026646    -6.9861629      0             -6.252806       3.238009     
   9500000   0.48353362    -6.8920708      0             -6.1687851      3.788697     
   9600000   0.47619584    -6.9202016      0             -6.207892       3.7172712    
   9700000   0.52821286    -6.9357033      0             -6.1455849      3.6775914    
   9800000   0.51127451    -6.9263984      0             -6.161617       3.6693908    
   9900000   0.48270049    -6.9267435      0             -6.204704       3.471582     
  10000000   0.48633131    -6.8949412      0             -6.1674706      3.9355005    
Loop time of 540.598 on 16 procs for 10000000 steps with 360 atoms

Performance: 4794693.913 tau/day, 18498.048 timesteps/s, 6.659 Matom-step/s
99.6% CPU use with 16 MPI tasks x 1 OpenMP threads

MPI task timing breakdown:
Section |  min time  |  avg time  |  max time  |%varavg| %total
---------------------------------------------------------------
Pair    | 98.565     | 104.28     | 112.83     |  41.9 | 19.29
Neigh   | 12.063     | 12.747     | 13.915     |  15.8 |  2.36
Comm    | 323.07     | 357.81     | 391.93     | 119.1 | 66.19
Output  | 0.0059474  | 0.0060804  | 0.0076254  |   0.5 |  0.00
Modify  | 24.687     | 54.079     | 79.364     | 249.8 | 10.00
Other   |            | 11.67      |            |       |  2.16

Nlocal:           22.5 ave          25 max          19 min
Histogram: 1 1 0 5 0 0 2 0 5 2
Nghost:            792 ave         816 max         769 min
Histogram: 1 2 1 1 4 3 0 1 2 1
Neighs:        1299.25 ave        1474 max        1091 min
Histogram: 2 0 0 4 0 4 0 3 1 2

Total # of neighbors = 20788
Ave neighs/atom = 57.744444
Neighbor list builds = 265709
Dangerous builds = 648
Total wall time: 0:09:00
