
include ${pot}.lmp
include kalj.lmp
units lj
atom_style atomic

variable dimensions equal 3
variable density equal 1.2
variable fraca equal 0.8

dimension ${dimensions}
dimension 3

#setup box
variable boxlength equal exp(ln(${volume})/${dimensions})
variable boxlength equal exp(ln(300)/${dimensions})
variable boxlength equal exp(ln(300)/3)
variable ntypea equal floor(${fraca}*${natoms})
variable ntypea equal floor(0.8*${natoms})
variable ntypea equal floor(0.8*360)
variable bstart equal ${ntypea}+1
variable bstart equal 288+1
variable ntypeb equal ${natoms}-${ntypea}
variable ntypeb equal 360-${ntypea}
variable ntypeb equal 360-288

lattice fcc ${density}
lattice fcc 1.2
Lattice spacing in x,y,z = 1.4938016 1.4938016 1.4938016
region box01 block 0 ${boxlength} 0 ${boxlength} 0 ${boxlength} units box
region box01 block 0 6.69432950082169 0 ${boxlength} 0 ${boxlength} units box
region box01 block 0 6.69432950082169 0 6.69432950082169 0 ${boxlength} units box
region box01 block 0 6.69432950082169 0 6.69432950082169 0 6.69432950082169 units box
create_box 2 box01 # 2 atomtypes
Created orthogonal box = (0 0 0) to (6.6943295 6.6943295 6.6943295)
  2 by 2 by 4 MPI processor grid
create_atoms 1 box
Created 365 atoms
  using lattice units in orthogonal box = (0 0 0) to (6.6943295 6.6943295 6.6943295)
  create_atoms CPU = 0.000 seconds

set atom ${bstart}* type 2
set atom 289* type 2
Setting atom values ...
  77 settings made for type
group extra id > ${natoms}
group extra id > 360
5 atoms in group extra
delete_atoms group extra
Deleted 5 atoms, new total = 360
group typea type 1
288 atoms in group typea
group typeb type 2
72 atoms in group typeb

include ${pot}_particles.lmp
include kalj_particles.lmp
mass * 1.0 #  set mass 1.0 for all types

pair_style lj/cut 2.5
#pair coeffs type1 type2 eps sigma
pair_coeff 1 1 1.0 1.00 2.5
pair_coeff 1 2 1.5 0.80 2.0
pair_coeff 2 2 0.5 0.88 2.2
pair_modify shift yes

print "Minimizing initial structure"
Minimizing initial structure
restart ${minsteps} ${basename}.final.lmprestart
restart 10000 ${basename}.final.lmprestart
restart 10000 equil/kalj_T2_n360_v300_10000_1.final.lmprestart
dump 1 all atom ${dumptime} ${basename}.lammpstrj
dump 1 all atom 10000 ${basename}.lammpstrj
dump 1 all atom 10000 equil/kalj_T2_n360_v300_10000_1.lammpstrj
thermo ${thermotime}
thermo 1000
timestep ${timestep}
timestep 0.001
neighbor 0.5 bin
neigh_modify every 1 delay 0 check yes
fix 1 all nve/limit 0.1
run ${minsteps}
run 10000
Generated 0 of 1 mixed pair_coeff terms from geometric mixing rule
Neighbor list info ...
  update: every = 1 steps, delay = 0 steps, check = yes
  max neighbors/atom: 2000, page size: 100000
  master list distance cutoff = 3
  ghost atom cutoff = 3
  binsize = 1.5, bins = 5 5 5
  1 neighbor lists, perpetual/occasional/extra = 1 0 0
  (1) pair lj/cut, perpetual
      attributes: half, newton on
      pair build: half/bin/atomonly/newton
      stencil: half/bin/3d
      bin: standard
Per MPI rank memory allocation (min/avg/max) = 4.074 | 4.081 | 4.084 Mbytes
   Step          Temp          E_pair         E_mol          TotEng         Press     
         0   0              31.41578       0              31.41578       200.04157    
      1000   16.748973      6.1797313      0              31.233404      97.760244    
      2000   16.407135      6.6924288      0              31.234769      99.55298     
      3000   17.91816       4.4309143      0              31.233495      89.719981    
      4000   17.153213      5.5741778      0              31.232526      95.445118    
      5000   16.463691      6.604681       0              31.231619      100.26858    
      6000   16.123047      7.1171818      0              31.234573      102.56083    
      7000   17.217479      5.4766803      0              31.23116       94.587812    
      8000   16.183903      7.0245094      0              31.232932      101.37809    
      9000   16.431675      6.6534586      0              31.232505      100.09361    
     10000   16.564459      6.4560955      0              31.233765      98.994106    
Loop time of 0.6114 on 16 procs for 10000 steps with 360 atoms

Performance: 1413150.673 tau/day, 16355.911 timesteps/s, 5.888 Matom-step/s
98.8% CPU use with 16 MPI tasks x 1 OpenMP threads

MPI task timing breakdown:
Section |  min time  |  avg time  |  max time  |%varavg| %total
---------------------------------------------------------------
Pair    | 0.10472    | 0.10883    | 0.11297    |   0.6 | 17.80
Neigh   | 0.026749   | 0.027829   | 0.028625   |   0.3 |  4.55
Comm    | 0.38505    | 0.40451    | 0.44279    |   2.9 | 66.16
Output  | 0.0016696  | 0.0017341  | 0.0021429  |   0.3 |  0.28
Modify  | 0.0030915  | 0.003255   | 0.0034483  |   0.2 |  0.53
Other   |            | 0.06523    |            |       | 10.67

Nlocal:           22.5 ave          26 max          18 min
Histogram: 1 0 1 5 0 0 3 3 2 1
Nghost:        783.625 ave         808 max         755 min
Histogram: 1 0 2 3 2 1 1 3 2 1
Neighs:        1297.94 ave        1561 max         996 min
Histogram: 1 0 3 2 1 2 2 1 3 1

Total # of neighbors = 20767
Ave neighs/atom = 57.686111
Neighbor list builds = 603
Dangerous builds = 0
Total wall time: 0:00:00
